language ESSENCE' 1.0
letting values be [[6, 2, 8, 1, 0, 9, 7, 4, 5], [3, 0, 0, 2, 5, 4, 1, 6, 0], [4, 1, 0, 8, 0, 0, 3, 0, 9], [0, 9, 3, 0, 0, 1, 6, 8, 7], [0, 5, 7, 0, 0, 6, 0, 0, 0], [8, 4, 6, 0, 0, 2, 5, 0, 0], [5, 3, 0, 4, 0, 8, 9, 0, 6], [7, 6, 0, 9, 2, 3, 8, 0, 0], [0, 0, 0, 0, 0, 5, 0, 0, 0]]